c generated by sgen3tocnf
c nLits = 639
c actual nVars = 213
c Command: sgen3tocnf 72 13 0 0 216 3 1 0 /dev/null
p cnf 216 285
-127 -64 0
-127 -139 0
-64 -139 0
-34 -181 0
-34 -214 0
-181 -214 0
-112 -79 0
-112 -100 0
-79 -100 0
-166 -85 0
-166 -88 0
-85 -88 0
-208 -205 0
-208 -167 0
-205 -167 0
-196 -31 0
-196 -7 0
-31 -7 0
-32 -154 0
-32 -206 0
-154 -206 0
-118 -40 0
-118 -209 0
-40 -209 0
-67 -113 0
-67 -49 0
-113 -49 0
-22 -89 0
-22 -19 0
-89 -19 0
-103 -145 0
-103 -136 0
-145 -136 0
-160 -61 0
-160 -23 0
-61 -23 0
-163 -35 0
-163 -157 0
-35 -157 0
-80 -175 0
-80 -202 0
-175 -202 0
-101 -71 0
-101 -68 0
-71 -68 0
-13 -10 0
-13 -81 0
-10 -81 0
-203 -20 0
-203 -94 0
-20 -94 0
-58 -76 0
-58 -4 0
-76 -4 0
-41 -109 0
-41 -72 0
-109 -72 0
-199 -50 0
-199 -55 0
-50 -55 0
-43 -142 0
-43 -184 0
-142 -184 0
-172 -14 0
-172 -97 0
-14 -97 0
-106 -173 0
-106 -52 0
-173 -52 0
-133 -69 0
-133 -73 0
-69 -73 0
-74 -137 0
-74 -200 0
-137 -200 0
-169 -140 0
-169 -16 0
-140 -16 0
-62 -119 0
-62 -170 0
-119 -170 0
-17 -46 0
-17 -77 0
-46 -77 0
-143 -215 0
-143 -47 0
-215 -47 0
-193 -98 0
-193 -42 0
-98 -42 0
-1 -190 0
-1 -161 0
-190 -161 0
-5 -56 0
-5 -91 0
-56 -91 0
-211 -168 0
-211 -197 0
-168 -197 0
-216 -164 0
-216 -151 0
-164 -151 0
-37 -75 0
-37 -146 0
-75 -146 0
-57 -24 0
-57 -187 0
-24 -187 0
-115 -188 0
-115 -128 0
-188 -128 0
-125 -129 0
-125 -107 0
-129 -107 0
-141 -38 0
-141 -36 0
-38 -36 0
-178 -59 0
-178 -28 0
-59 -28 0
-65 -2 0
-65 -86 0
-2 -86 0
-130 -104 0
-130 -165 0
-104 -165 0
-185 -116 0
-185 -131 0
-116 -131 0
-78 -25 0
-78 -174 0
-25 -174 0
-29 -212 0
-29 -148 0
-212 -148 0
-51 -102 0
-51 -213 0
-102 -213 0
-53 -171 0
-53 -191 0
-171 -191 0
-149 -186 0
-149 -82 0
-186 -82 0
-192 -152 0
-192 -110 0
-152 -110 0
-11 -54 0
-11 -155 0
-54 -155 0
-95 -83 0
-95 -182 0
-83 -182 0
-92 -8 0
-92 -15 0
-8 -15 0
-84 -44 0
-84 -39 0
-44 -39 0
-21 -132 0
-21 -176 0
-132 -176 0
-26 -96 0
-26 -120 0
-96 -120 0
-158 -198 0
-158 -63 0
-198 -63 0
-138 -18 0
-138 -117 0
-18 -117 0
-177 -134 0
-177 -194 0
-134 -194 0
-9 -30 0
-9 -3 0
-30 -3 0
-99 -210 0
-99 -144 0
-210 -144 0
-189 -150 0
-189 -60 0
-150 -60 0
-207 -162 0
-207 -179 0
-162 -179 0
-121 -195 0
-121 -126 0
-195 -126 0
-111 -204 0
-111 -105 0
-204 -105 0
-48 -180 0
-48 -66 0
-180 -66 0
-153 -201 0
-153 -122 0
-201 -122 0
-147 -159 0
-147 -27 0
-159 -27 0
-183 -123 0
-183 -12 0
-123 -12 0
-90 -93 0
-90 -114 0
-93 -114 0
-87 -6 0
-87 -45 0
-6 -45 0
-156 -108 0
-156 -135 0
-108 -135 0
1 2 3 0
5 6 4 0
9 8 7 0
11 10 12 0
13 14 15 0
17 18 16 0
21 20 19 0
22 24 23 0
26 25 27 0
29 30 28 0
32 31 0
34 35 36 0
37 38 39 0
41 40 42 0
43 44 45 0
48 46 47 0
51 50 49 0
53 54 52 0
57 56 55 0
58 59 60 0
62 61 63 0
65 64 66 0
67 69 68 0
71 72 0
74 75 73 0
78 76 77 0
80 79 81 0
84 83 82 0
87 85 86 0
90 89 88 0
92 93 91 0
95 96 94 0
99 98 97 0
101 102 100 0
103 104 105 0
106 108 107 0
111 109 110 0
112 113 114 0
115 116 117 0
118 119 120 0
121 123 122 0
125 126 0
127 129 128 0
130 132 131 0
133 134 135 0
138 137 136 0
141 140 139 0
143 142 144 0
147 145 146 0
149 150 148 0
153 152 151 0
156 154 155 0
158 159 157 0
160 162 161 0
163 164 165 0
166 168 167 0
169 171 170 0
172 173 174 0
177 175 176 0
178 180 179 0
183 181 182 0
185 186 184 0
189 188 187 0
192 190 191 0
193 195 194 0
196 198 197 0
199 201 200 0
203 204 202 0
207 205 206 0
208 210 209 0
211 212 213 0
216 215 214 0
